NAME: tsp50_28
COMMENT: 50-tsp problem (Padberg/Rinaldi)
TYPE: TSP
DIMENSION: 50
EDGE_WEIGHT_TYPE : EUC_2D
NODE_COORD_SECTION
1 36 21
2 35 29
3 10 0
4 1 14
5 36 35
6 15 31
7 6 34
8 27 10
9 29 37
10 37 24
11 12 6
12 26 12
13 24 15
14 35 23
15 29 34
16 3 25
17 3 3
18 36 15
19 2 19
20 38 16
21 20 39
22 17 23
23 8 0
24 31 15
25 38 5
26 14 21
27 3 4
28 5 10
29 5 10
30 5 20
31 26 3
32 3 40
33 33 20
34 9 0
35 24 35
36 6 22
37 38 20
38 2 19
39 16 21
40 16 10
41 19 19
42 12 14
43 28 7
44 22 26
45 22 20
46 7 31
47 27 17
48 9 4
49 12 33
50 27 12
